p cnf 626 1724
5 -7 51 0
-5 -7 -51 0
5 7 -51 0
-5 7 51 0
8 -9 52 0
-8 -9 -52 0
8 9 -52 0
-8 9 52 0
12 15 53 0
-12 15 -53 0
12 -15 -53 0
-12 -15 53 0
17 -24 54 0
-17 -24 -54 0
17 24 -54 0
-17 24 54 0
25 -26 55 0
-25 -26 -55 0
25 26 -55 0
-25 26 55 0
-27 28 56 0
27 28 -56 0
-27 -28 -56 0
27 -28 56 0
29 -30 57 0
-29 -30 -57 0
29 30 -57 0
-29 30 57 0
31 -32 58 0
-31 -32 -58 0
31 32 -58 0
-31 32 58 0
34 36 59 0
-34 36 -59 0
34 -36 -59 0
-34 -36 59 0
-37 38 60 0
37 38 -60 0
-37 -38 -60 0
37 -38 60 0
-40 -44 61 0
40 -44 -61 0
-40 44 -61 0
40 44 61 0
-45 -48 62 0
45 -48 -62 0
-45 48 -62 0
45 48 62 0
51 -52 63 0
-51 -52 -63 0
51 52 -63 0
-51 52 63 0
53 -54 64 0
-53 -54 -64 0
53 54 -64 0
-53 54 64 0
55 -56 65 0
-55 -56 -65 0
55 56 -65 0
-55 56 65 0
57 -58 66 0
-57 -58 -66 0
57 58 -66 0
-57 58 66 0
59 -60 67 0
-59 -60 -67 0
59 60 -67 0
-59 60 67 0
61 -62 68 0
-61 -62 -68 0
61 62 -68 0
-61 62 68 0
63 -64 69 0
-63 -64 -69 0
63 64 -69 0
-63 64 69 0
65 -66 70 0
-65 -66 -70 0
65 66 -70 0
-65 66 70 0
67 -68 71 0
-67 -68 -71 0
67 68 -71 0
-67 68 71 0
-69 -70 71 0
69 -70 -71 0
-69 70 -71 0
69 70 71 0
1 2 72 0
-1 2 -72 0
1 -2 -72 0
-1 -2 72 0
8 11 73 0
-8 11 -73 0
8 -11 -73 0
-8 -11 73 0
-12 -13 74 0
12 -13 -74 0
-12 13 -74 0
12 13 74 0
16 -17 75 0
-16 -17 -75 0
16 17 -75 0
-16 17 75 0
18 24 76 0
-18 24 -76 0
18 -24 -76 0
-18 -24 76 0
-25 26 77 0
25 26 -77 0
-25 -26 -77 0
25 -26 77 0
-28 -29 78 0
28 -29 -78 0
-28 29 -78 0
28 29 78 0
-30 31 79 0
30 31 -79 0
-30 -31 -79 0
30 -31 79 0
-32 33 80 0
32 33 -80 0
-32 -33 -80 0
32 -33 80 0
-36 -39 81 0
36 -39 -81 0
-36 39 -81 0
36 39 81 0
40 -41 82 0
-40 -41 -82 0
40 41 -82 0
-40 41 82 0
-43 44 83 0
43 44 -83 0
-43 -44 -83 0
43 -44 83 0
45 46 84 0
-45 46 -84 0
45 -46 -84 0
-45 -46 84 0
-47 -48 85 0
47 -48 -85 0
-47 48 -85 0
47 48 85 0
71 -72 86 0
-71 -72 -86 0
71 72 -86 0
-71 72 86 0
73 -74 87 0
-73 -74 -87 0
73 74 -87 0
-73 74 87 0
75 -76 88 0
-75 -76 -88 0
75 76 -88 0
-75 76 88 0
77 -78 89 0
-77 -78 -89 0
77 78 -89 0
-77 78 89 0
79 -80 90 0
-79 -80 -90 0
79 80 -90 0
-79 80 90 0
81 -82 91 0
-81 -82 -91 0
81 82 -91 0
-81 82 91 0
83 -84 92 0
-83 -84 -92 0
83 84 -92 0
-83 84 92 0
85 -86 93 0
-85 -86 -93 0
85 86 -93 0
-85 86 93 0
87 -88 94 0
-87 -88 -94 0
87 88 -94 0
-87 88 94 0
89 -90 95 0
-89 -90 -95 0
89 90 -95 0
-89 90 95 0
91 -92 96 0
-91 -92 -96 0
91 92 -96 0
-91 92 96 0
93 -94 97 0
-93 -94 -97 0
93 94 -97 0
-93 94 97 0
95 -96 98 0
-95 -96 -98 0
95 96 -98 0
-95 96 98 0
97 98 0
-97 -98 0
2 -3 99 0
-2 -3 -99 0
2 3 -99 0
-2 3 99 0
-6 -7 100 0
6 -7 -100 0
-6 7 -100 0
6 7 100 0
9 -13 101 0
-9 -13 -101 0
9 13 -101 0
-9 13 101 0
-15 16 102 0
15 16 -102 0
-15 -16 -102 0
15 -16 102 0
18 -19 103 0
-18 -19 -103 0
18 19 -103 0
-18 19 103 0
-20 -22 104 0
20 -22 -104 0
-20 22 -104 0
20 22 104 0
-25 -27 105 0
25 -27 -105 0
-25 27 -105 0
25 27 105 0
-29 30 106 0
29 30 -106 0
-29 -30 -106 0
29 -30 106 0
-31 -36 107 0
31 -36 -107 0
-31 36 -107 0
31 36 107 0
-37 38 108 0
37 38 -108 0
-37 -38 -108 0
37 -38 108 0
-39 -41 109 0
39 -41 -109 0
-39 41 -109 0
39 41 109 0
-42 -44 110 0
42 -44 -110 0
-42 44 -110 0
42 44 110 0
-46 -49 111 0
46 -49 -111 0
-46 49 -111 0
46 49 111 0
99 -100 112 0
-99 -100 -112 0
99 100 -112 0
-99 100 112 0
101 -102 113 0
-101 -102 -113 0
101 102 -113 0
-101 102 113 0
103 -104 114 0
-103 -104 -114 0
103 104 -114 0
-103 104 114 0
105 -106 115 0
-105 -106 -115 0
105 106 -115 0
-105 106 115 0
107 -108 116 0
-107 -108 -116 0
107 108 -116 0
-107 108 116 0
109 -110 117 0
-109 -110 -117 0
109 110 -117 0
-109 110 117 0
111 -112 118 0
-111 -112 -118 0
111 112 -118 0
-111 112 118 0
113 -114 119 0
-113 -114 -119 0
113 114 -119 0
-113 114 119 0
115 -116 120 0
-115 -116 -120 0
115 116 -120 0
-115 116 120 0
117 -118 121 0
-117 -118 -121 0
117 118 -121 0
-117 118 121 0
119 -120 122 0
-119 -120 -122 0
119 120 -122 0
-119 120 122 0
121 122 0
-121 -122 0
-2 3 123 0
2 3 -123 0
-2 -3 -123 0
2 -3 123 0
-4 11 124 0
4 11 -124 0
-4 -11 -124 0
4 -11 124 0
12 -13 125 0
-12 -13 -125 0
12 13 -125 0
-12 13 125 0
16 18 126 0
-16 18 -126 0
16 -18 -126 0
-16 -18 126 0
19 -20 127 0
-19 -20 -127 0
19 20 -127 0
-19 20 127 0
-21 22 128 0
21 22 -128 0
-21 -22 -128 0
21 -22 128 0
23 -24 129 0
-23 -24 -129 0
23 24 -129 0
-23 24 129 0
-26 -27 130 0
26 -27 -130 0
-26 27 -130 0
26 27 130 0
-29 31 131 0
29 31 -131 0
-29 -31 -131 0
29 -31 131 0
32 33 132 0
-32 33 -132 0
32 -33 -132 0
-32 -33 132 0
34 -35 133 0
-34 -35 -133 0
34 35 -133 0
-34 35 133 0
-36 -42 134 0
36 -42 -134 0
-36 42 -134 0
36 42 134 0
-43 44 135 0
43 44 -135 0
-43 -44 -135 0
43 -44 135 0
-46 -47 136 0
46 -47 -136 0
-46 47 -136 0
46 47 136 0
122 -123 137 0
-122 -123 -137 0
122 123 -137 0
-122 123 137 0
124 -125 138 0
-124 -125 -138 0
124 125 -138 0
-124 125 138 0
126 -127 139 0
-126 -127 -139 0
126 127 -139 0
-126 127 139 0
128 -129 140 0
-128 -129 -140 0
128 129 -140 0
-128 129 140 0
130 -131 141 0
-130 -131 -141 0
130 131 -141 0
-130 131 141 0
132 -133 142 0
-132 -133 -142 0
132 133 -142 0
-132 133 142 0
134 -135 143 0
-134 -135 -143 0
134 135 -143 0
-134 135 143 0
136 -137 144 0
-136 -137 -144 0
136 137 -144 0
-136 137 144 0
138 -139 145 0
-138 -139 -145 0
138 139 -145 0
-138 139 145 0
140 -141 146 0
-140 -141 -146 0
140 141 -146 0
-140 141 146 0
142 -143 147 0
-142 -143 -147 0
142 143 -147 0
-142 143 147 0
144 -145 148 0
-144 -145 -148 0
144 145 -148 0
-144 145 148 0
146 -147 149 0
-146 -147 -149 0
146 147 -149 0
-146 147 149 0
148 149 0
-148 -149 0
-1 -2 150 0
1 -2 -150 0
-1 2 -150 0
1 2 150 0
4 -5 151 0
-4 -5 -151 0
4 5 -151 0
-4 5 151 0
6 9 152 0
-6 9 -152 0
6 -9 -152 0
-6 -9 152 0
-14 -16 153 0
14 -16 -153 0
-14 16 -153 0
14 16 153 0
-18 -21 154 0
18 -21 -154 0
-18 21 -154 0
18 21 154 0
22 24 155 0
-22 24 -155 0
22 -24 -155 0
-22 -24 155 0
31 33 156 0
-31 33 -156 0
31 -33 -156 0
-31 -33 156 0
35 -37 157 0
-35 -37 -157 0
35 37 -157 0
-35 37 157 0
38 39 158 0
-38 39 -158 0
38 -39 -158 0
-38 -39 158 0
-41 -42 159 0
41 -42 -159 0
-41 42 -159 0
41 42 159 0
-43 46 160 0
43 46 -160 0
-43 -46 -160 0
43 -46 160 0
149 -150 161 0
-149 -150 -161 0
149 150 -161 0
-149 150 161 0
151 -152 162 0
-151 -152 -162 0
151 152 -162 0
-151 152 162 0
153 -154 163 0
-153 -154 -163 0
153 154 -163 0
-153 154 163 0
155 -156 164 0
-155 -156 -164 0
155 156 -164 0
-155 156 164 0
157 -158 165 0
-157 -158 -165 0
157 158 -165 0
-157 158 165 0
159 -160 166 0
-159 -160 -166 0
159 160 -166 0
-159 160 166 0
161 -162 167 0
-161 -162 -167 0
161 162 -167 0
-161 162 167 0
163 -164 168 0
-163 -164 -168 0
163 164 -168 0
-163 164 168 0
165 -166 169 0
-165 -166 -169 0
165 166 -169 0
-165 166 169 0
-167 -168 169 0
167 -168 -169 0
-167 168 -169 0
167 168 169 0
1 -2 170 0
-1 -2 -170 0
1 2 -170 0
-1 2 170 0
-3 -4 171 0
3 -4 -171 0
-3 4 -171 0
3 4 171 0
5 -7 172 0
-5 -7 -172 0
5 7 -172 0
-5 7 172 0
8 -12 173 0
-8 -12 -173 0
8 12 -173 0
-8 12 173 0
13 -14 174 0
-13 -14 -174 0
13 14 -174 0
-13 14 174 0
-16 17 175 0
16 17 -175 0
-16 -17 -175 0
16 -17 175 0
-18 -23 176 0
18 -23 -176 0
-18 23 -176 0
18 23 176 0
-24 -25 177 0
24 -25 -177 0
-24 25 -177 0
24 25 177 0
-28 -29 178 0
28 -29 -178 0
-28 29 -178 0
28 29 178 0
-30 33 179 0
30 33 -179 0
-30 -33 -179 0
30 -33 179 0
-34 -41 180 0
34 -41 -180 0
-34 41 -180 0
34 41 180 0
44 45 181 0
-44 45 -181 0
44 -45 -181 0
-44 -45 181 0
46 -47 182 0
-46 -47 -182 0
46 47 -182 0
-46 47 182 0
48 -49 183 0
-48 -49 -183 0
48 49 -183 0
-48 49 183 0
169 -170 184 0
-169 -170 -184 0
169 170 -184 0
-169 170 184 0
171 -172 185 0
-171 -172 -185 0
171 172 -185 0
-171 172 185 0
173 -174 186 0
-173 -174 -186 0
173 174 -186 0
-173 174 186 0
175 -176 187 0
-175 -176 -187 0
175 176 -187 0
-175 176 187 0
177 -178 188 0
-177 -178 -188 0
177 178 -188 0
-177 178 188 0
179 -180 189 0
-179 -180 -189 0
179 180 -189 0
-179 180 189 0
181 -182 190 0
-181 -182 -190 0
181 182 -190 0
-181 182 190 0
183 -184 191 0
-183 -184 -191 0
183 184 -191 0
-183 184 191 0
185 -186 192 0
-185 -186 -192 0
185 186 -192 0
-185 186 192 0
187 -188 193 0
-187 -188 -193 0
187 188 -193 0
-187 188 193 0
189 -190 194 0
-189 -190 -194 0
189 190 -194 0
-189 190 194 0
191 -192 195 0
-191 -192 -195 0
191 192 -195 0
-191 192 195 0
193 -194 196 0
-193 -194 -196 0
193 194 -196 0
-193 194 196 0
195 196 0
-195 -196 0
1 -2 197 0
-1 -2 -197 0
1 2 -197 0
-1 2 197 0
4 -6 198 0
-4 -6 -198 0
4 6 -198 0
-4 6 198 0
8 -11 199 0
-8 -11 -199 0
8 11 -199 0
-8 11 199 0
-18 19 200 0
18 19 -200 0
-18 -19 -200 0
18 -19 200 0
-23 26 201 0
23 26 -201 0
-23 -26 -201 0
23 -26 201 0
27 -28 202 0
-27 -28 -202 0
27 28 -202 0
-27 28 202 0
-29 -30 203 0
29 -30 -203 0
-29 30 -203 0
29 30 203 0
-31 -35 204 0
31 -35 -204 0
-31 35 -204 0
31 35 204 0
36 37 205 0
-36 37 -205 0
36 -37 -205 0
-36 -37 205 0
-38 -39 206 0
38 -39 -206 0
-38 39 -206 0
38 39 206 0
40 -42 207 0
-40 -42 -207 0
40 42 -207 0
-40 42 207 0
44 46 208 0
-44 46 -208 0
44 -46 -208 0
-44 -46 208 0
-49 -50 209 0
49 -50 -209 0
-49 50 -209 0
49 50 209 0
197 -198 210 0
-197 -198 -210 0
197 198 -210 0
-197 198 210 0
199 -200 211 0
-199 -200 -211 0
199 200 -211 0
-199 200 211 0
201 -202 212 0
-201 -202 -212 0
201 202 -212 0
-201 202 212 0
203 -204 213 0
-203 -204 -213 0
203 204 -213 0
-203 204 213 0
205 -206 214 0
-205 -206 -214 0
205 206 -214 0
-205 206 214 0
207 -208 215 0
-207 -208 -215 0
207 208 -215 0
-207 208 215 0
209 -210 216 0
-209 -210 -216 0
209 210 -216 0
-209 210 216 0
211 -212 217 0
-211 -212 -217 0
211 212 -217 0
-211 212 217 0
213 -214 218 0
-213 -214 -218 0
213 214 -218 0
-213 214 218 0
215 -216 219 0
-215 -216 -219 0
215 216 -219 0
-215 216 219 0
217 -218 220 0
-217 -218 -220 0
217 218 -220 0
-217 218 220 0
219 220 0
-219 -220 0
-2 3 221 0
2 3 -221 0
-2 -3 -221 0
2 -3 221 0
5 7 222 0
-5 7 -222 0
5 -7 -222 0
-5 -7 222 0
-10 -13 223 0
10 -13 -223 0
-10 13 -223 0
10 13 223 0
-15 18 224 0
15 18 -224 0
-15 -18 -224 0
15 -18 224 0
-23 -24 225 0
23 -24 -225 0
-23 24 -225 0
23 24 225 0
-25 -26 226 0
25 -26 -226 0
-25 26 -226 0
25 26 226 0
27 -30 227 0
-27 -30 -227 0
27 30 -227 0
-27 30 227 0
-31 -32 228 0
31 -32 -228 0
-31 32 -228 0
31 32 228 0
33 35 229 0
-33 35 -229 0
33 -35 -229 0
-33 -35 229 0
-38 -40 230 0
38 -40 -230 0
-38 40 -230 0
38 40 230 0
-42 44 231 0
42 44 -231 0
-42 -44 -231 0
42 -44 231 0
45 -47 232 0
-45 -47 -232 0
45 47 -232 0
-45 47 232 0
221 -222 233 0
-221 -222 -233 0
221 222 -233 0
-221 222 233 0
223 -224 234 0
-223 -224 -234 0
223 224 -234 0
-223 224 234 0
225 -226 235 0
-225 -226 -235 0
225 226 -235 0
-225 226 235 0
227 -228 236 0
-227 -228 -236 0
227 228 -236 0
-227 228 236 0
229 -230 237 0
-229 -230 -237 0
229 230 -237 0
-229 230 237 0
231 -232 238 0
-231 -232 -238 0
231 232 -238 0
-231 232 238 0
233 -234 239 0
-233 -234 -239 0
233 234 -239 0
-233 234 239 0
235 -236 240 0
-235 -236 -240 0
235 236 -240 0
-235 236 240 0
237 -238 241 0
-237 -238 -241 0
237 238 -241 0
-237 238 241 0
-239 -240 241 0
239 -240 -241 0
-239 240 -241 0
239 240 241 0
3 -4 242 0
-3 -4 -242 0
3 4 -242 0
-3 4 242 0
-9 -10 243 0
9 -10 -243 0
-9 10 -243 0
9 10 243 0
11 15 244 0
-11 15 -244 0
11 -15 -244 0
-11 -15 244 0
-16 -17 245 0
16 -17 -245 0
-16 17 -245 0
16 17 245 0
-20 -21 246 0
20 -21 -246 0
-20 21 -246 0
20 21 246 0
23 25 247 0
-23 25 -247 0
23 -25 -247 0
-23 -25 247 0
29 -30 248 0
-29 -30 -248 0
29 30 -248 0
-29 30 248 0
31 -32 249 0
-31 -32 -249 0
31 32 -249 0
-31 32 249 0
34 -35 250 0
-34 -35 -250 0
34 35 -250 0
-34 35 250 0
43 -44 251 0
-43 -44 -251 0
43 44 -251 0
-43 44 251 0
-47 -49 252 0
47 -49 -252 0
-47 49 -252 0
47 49 252 0
241 -242 253 0
-241 -242 -253 0
241 242 -253 0
-241 242 253 0
243 -244 254 0
-243 -244 -254 0
243 244 -254 0
-243 244 254 0
245 -246 255 0
-245 -246 -255 0
245 246 -255 0
-245 246 255 0
247 -248 256 0
-247 -248 -256 0
247 248 -256 0
-247 248 256 0
249 -250 257 0
-249 -250 -257 0
249 250 -257 0
-249 250 257 0
251 -252 258 0
-251 -252 -258 0
251 252 -258 0
-251 252 258 0
253 -254 259 0
-253 -254 -259 0
253 254 -259 0
-253 254 259 0
255 -256 260 0
-255 -256 -260 0
255 256 -260 0
-255 256 260 0
257 -258 261 0
-257 -258 -261 0
257 258 -261 0
-257 258 261 0
-259 -260 261 0
259 -260 -261 0
-259 260 -261 0
259 260 261 0
-1 2 262 0
1 2 -262 0
-1 -2 -262 0
1 -2 262 0
-3 4 263 0
3 4 -263 0
-3 -4 -263 0
3 -4 263 0
5 -6 264 0
-5 -6 -264 0
5 6 -264 0
-5 6 264 0
7 9 265 0
-7 9 -265 0
7 -9 -265 0
-7 -9 265 0
-13 -14 266 0
13 -14 -266 0
-13 14 -266 0
13 14 266 0
16 18 267 0
-16 18 -267 0
16 -18 -267 0
-16 -18 267 0
21 23 268 0
-21 23 -268 0
21 -23 -268 0
-21 -23 268 0
-25 -28 269 0
25 -28 -269 0
-25 28 -269 0
25 28 269 0
-29 -32 270 0
29 -32 -270 0
-29 32 -270 0
29 32 270 0
34 35 271 0
-34 35 -271 0
34 -35 -271 0
-34 -35 271 0
38 -42 272 0
-38 -42 -272 0
38 42 -272 0
-38 42 272 0
-43 -45 273 0
43 -45 -273 0
-43 45 -273 0
43 45 273 0
48 49 274 0
-48 49 -274 0
48 -49 -274 0
-48 -49 274 0
262 -263 275 0
-262 -263 -275 0
262 263 -275 0
-262 263 275 0
264 -265 276 0
-264 -265 -276 0
264 265 -276 0
-264 265 276 0
266 -267 277 0
-266 -267 -277 0
266 267 -277 0
-266 267 277 0
268 -269 278 0
-268 -269 -278 0
268 269 -278 0
-268 269 278 0
270 -271 279 0
-270 -271 -279 0
270 271 -279 0
-270 271 279 0
272 -273 280 0
-272 -273 -280 0
272 273 -280 0
-272 273 280 0
274 -275 281 0
-274 -275 -281 0
274 275 -281 0
-274 275 281 0
276 -277 282 0
-276 -277 -282 0
276 277 -282 0
-276 277 282 0
278 -279 283 0
-278 -279 -283 0
278 279 -283 0
-278 279 283 0
280 -281 284 0
-280 -281 -284 0
280 281 -284 0
-280 281 284 0
282 -283 285 0
-282 -283 -285 0
282 283 -285 0
-282 283 285 0
284 285 0
-284 -285 0
-12 286 0
-24 286 0
-12 -24 287 0
-23 286 0
-12 -23 287 0
-24 -23 287 0
-12 -24 -23 288 0
-22 289 0
-21 289 0
-22 -21 290 0
-20 289 0
-22 -20 290 0
-21 -20 290 0
-22 -21 -20 291 0
-286 292 0
-287 293 0
-288 294 0
-289 292 0
-290 293 0
-291 294 0
-286 -289 293 0
-286 -290 294 0
-286 -291 295 0
-287 -289 294 0
-287 -290 295 0
-287 -291 296 0
-288 -289 295 0
-288 -290 296 0
-288 -291 297 0
-19 298 0
-18 298 0
-19 -18 299 0
-17 298 0
-19 -17 299 0
-18 -17 299 0
-19 -18 -17 300 0
-16 301 0
-15 301 0
-16 -15 302 0
-14 301 0
-16 -14 302 0
-15 -14 302 0
-16 -15 -14 303 0
-298 304 0
-299 305 0
-300 306 0
-301 304 0
-302 305 0
-303 306 0
-298 -301 305 0
-298 -302 306 0
-298 -303 307 0
-299 -301 306 0
-299 -302 307 0
-299 -303 308 0
-300 -301 307 0
-300 -302 308 0
-300 -303 309 0
-292 310 0
-294 311 0
-296 312 0
-304 310 0
-306 311 0
-308 312 0
-292 -304 311 0
-292 -306 312 0
-292 -308 313 0
-294 -304 312 0
-294 -306 313 0
-294 -308 314 0
-296 -304 313 0
-296 -306 314 0
-296 -308 315 0
-293 316 0
-295 317 0
-297 318 0
-305 316 0
-307 317 0
-309 318 0
-293 -305 317 0
-293 -307 318 0
-293 -309 319 0
-295 -305 318 0
-295 -307 319 0
-295 -309 320 0
-297 -305 319 0
-297 -307 320 0
-297 -309 321 0
-311 322 0
-316 322 0
-311 -316 323 0
-312 324 0
-317 324 0
-312 -317 325 0
-313 326 0
-318 326 0
-313 -318 327 0
-314 328 0
-319 328 0
-314 -319 329 0
-315 330 0
-320 330 0
-315 -320 331 0
-13 332 0
-25 332 0
-13 -25 333 0
-11 332 0
-13 -11 333 0
-25 -11 333 0
-13 -25 -11 334 0
-10 335 0
-9 335 0
-10 -9 336 0
-8 335 0
-10 -8 336 0
-9 -8 336 0
-10 -9 -8 337 0
-332 338 0
-333 339 0
-334 340 0
-335 338 0
-336 339 0
-337 340 0
-332 -335 339 0
-332 -336 340 0
-332 -337 341 0
-333 -335 340 0
-333 -336 341 0
-333 -337 342 0
-334 -335 341 0
-334 -336 342 0
-334 -337 343 0
-7 344 0
-6 344 0
-7 -6 345 0
-5 344 0
-7 -5 345 0
-6 -5 345 0
-7 -6 -5 346 0
-4 347 0
-3 347 0
-4 -3 348 0
-2 347 0
-4 -2 348 0
-3 -2 348 0
-4 -3 -2 349 0
-344 350 0
-345 351 0
-346 352 0
-347 350 0
-348 351 0
-349 352 0
-344 -347 351 0
-344 -348 352 0
-344 -349 353 0
-345 -347 352 0
-345 -348 353 0
-345 -349 354 0
-346 -347 353 0
-346 -348 354 0
-346 -349 355 0
-338 356 0
-340 357 0
-342 358 0
-350 356 0
-352 357 0
-354 358 0
-338 -350 357 0
-338 -352 358 0
-338 -354 359 0
-340 -350 358 0
-340 -352 359 0
-340 -354 360 0
-342 -350 359 0
-342 -352 360 0
-342 -354 361 0
-339 362 0
-341 363 0
-343 364 0
-351 362 0
-353 363 0
-355 364 0
-339 -351 363 0
-339 -353 364 0
-339 -355 365 0
-341 -351 364 0
-341 -353 365 0
-341 -355 366 0
-343 -351 365 0
-343 -353 366 0
-343 -355 367 0
-357 368 0
-362 368 0
-357 -362 369 0
-358 370 0
-363 370 0
-358 -363 371 0
-359 372 0
-364 372 0
-359 -364 373 0
-360 374 0
-365 374 0
-360 -365 375 0
-361 376 0
-366 376 0
-361 -366 377 0
-1 378 0
-37 378 0
-1 -37 379 0
-49 378 0
-1 -49 379 0
-37 -49 379 0
-1 -37 -49 380 0
-48 381 0
-47 381 0
-48 -47 382 0
-46 381 0
-48 -46 382 0
-47 -46 382 0
-48 -47 -46 383 0
-378 384 0
-379 385 0
-380 386 0
-381 384 0
-382 385 0
-383 386 0
-378 -381 385 0
-378 -382 386 0
-378 -383 387 0
-379 -381 386 0
-379 -382 387 0
-379 -383 388 0
-380 -381 387 0
-380 -382 388 0
-380 -383 389 0
-45 390 0
-44 390 0
-45 -44 391 0
-43 390 0
-45 -43 391 0
-44 -43 391 0
-45 -44 -43 392 0
-42 393 0
-41 393 0
-42 -41 394 0
-40 393 0
-42 -40 394 0
-41 -40 394 0
-42 -41 -40 395 0
-390 396 0
-391 397 0
-392 398 0
-393 396 0
-394 397 0
-395 398 0
-390 -393 397 0
-390 -394 398 0
-390 -395 399 0
-391 -393 398 0
-391 -394 399 0
-391 -395 400 0
-392 -393 399 0
-392 -394 400 0
-392 -395 401 0
-384 402 0
-386 403 0
-388 404 0
-396 402 0
-398 403 0
-400 404 0
-384 -396 403 0
-384 -398 404 0
-384 -400 405 0
-386 -396 404 0
-386 -398 405 0
-386 -400 406 0
-388 -396 405 0
-388 -398 406 0
-388 -400 407 0
-385 408 0
-387 409 0
-389 410 0
-397 408 0
-399 409 0
-401 410 0
-385 -397 409 0
-385 -399 410 0
-385 -401 411 0
-387 -397 410 0
-387 -399 411 0
-387 -401 412 0
-389 -397 411 0
-389 -399 412 0
-389 -401 413 0
-403 414 0
-408 414 0
-403 -408 415 0
-404 416 0
-409 416 0
-404 -409 417 0
-405 418 0
-410 418 0
-405 -410 419 0
-406 420 0
-411 420 0
-406 -411 421 0
-407 422 0
-412 422 0
-407 -412 423 0
-39 424 0
-38 424 0
-39 -38 425 0
-50 424 0
-39 -50 425 0
-38 -50 425 0
-39 -38 -50 426 0
-36 427 0
-35 427 0
-36 -35 428 0
-34 427 0
-36 -34 428 0
-35 -34 428 0
-36 -35 -34 429 0
-424 430 0
-425 431 0
-426 432 0
-427 430 0
-428 431 0
-429 432 0
-424 -427 431 0
-424 -428 432 0
-424 -429 433 0
-425 -427 432 0
-425 -428 433 0
-425 -429 434 0
-426 -427 433 0
-426 -428 434 0
-426 -429 435 0
-33 436 0
-32 436 0
-33 -32 437 0
-31 436 0
-33 -31 437 0
-32 -31 437 0
-33 -32 -31 438 0
-30 439 0
-29 439 0
-30 -29 440 0
-28 441 0
-27 441 0
-28 -27 442 0
-26 441 0
-28 -26 442 0
-27 -26 442 0
-28 -27 -26 443 0
-439 444 0
-440 445 0
-441 444 0
-442 445 0
-443 446 0
-439 -441 445 0
-439 -442 446 0
-439 -443 447 0
-440 -441 446 0
-440 -442 447 0
-440 -443 448 0
-436 449 0
-437 450 0
-438 451 0
-444 449 0
-445 450 0
-446 451 0
-447 452 0
-448 453 0
-436 -444 450 0
-436 -445 451 0
-436 -446 452 0
-436 -447 453 0
-436 -448 454 0
-437 -444 451 0
-437 -445 452 0
-437 -446 453 0
-437 -447 454 0
-437 -448 455 0
-438 -444 452 0
-438 -445 453 0
-438 -446 454 0
-438 -447 455 0
-438 -448 456 0
-430 457 0
-432 458 0
-434 459 0
-449 457 0
-451 458 0
-453 459 0
-455 460 0
-430 -449 458 0
-430 -451 459 0
-430 -453 460 0
-430 -455 461 0
-432 -449 459 0
-432 -451 460 0
-432 -453 461 0
-432 -455 462 0
-434 -449 460 0
-434 -451 461 0
-434 -453 462 0
-434 -455 463 0
-431 464 0
-433 465 0
-435 466 0
-450 464 0
-452 465 0
-454 466 0
-456 467 0
-431 -450 465 0
-431 -452 466 0
-431 -454 467 0
-431 -456 468 0
-433 -450 466 0
-433 -452 467 0
-433 -454 468 0
-433 -456 469 0
-435 -450 467 0
-435 -452 468 0
-435 -454 469 0
-435 -456 470 0
-458 471 0
-464 471 0
-458 -464 472 0
-459 473 0
-465 473 0
-459 -465 474 0
-460 475 0
-466 475 0
-460 -466 476 0
-461 477 0
-467 477 0
-461 -467 478 0
-462 479 0
-468 479 0
-462 -468 480 0
-463 481 0
-469 481 0
-463 -469 482 0
-402 483 0
-417 484 0
-421 485 0
-457 483 0
-474 484 0
-478 485 0
-482 486 0
-402 -457 484 0
-402 -474 485 0
-402 -478 486 0
-402 -482 487 0
-417 -457 485 0
-417 -474 486 0
-417 -478 487 0
-421 -457 486 0
-421 -474 487 0
-415 488 0
-419 489 0
-423 490 0
-472 488 0
-476 489 0
-480 490 0
-415 -472 489 0
-415 -476 490 0
-415 -480 491 0
-419 -472 490 0
-419 -476 491 0
-423 -472 491 0
-484 492 0
-488 492 0
-484 -488 493 0
-485 494 0
-489 494 0
-485 -489 495 0
-486 496 0
-490 496 0
-486 -490 497 0
-487 498 0
-491 498 0
-487 -491 499 0
-414 500 0
-418 501 0
-422 502 0
-471 500 0
-475 501 0
-479 502 0
-470 503 0
-414 -471 501 0
-414 -475 502 0
-414 -479 503 0
-414 -470 504 0
-418 -471 502 0
-418 -475 503 0
-418 -479 504 0
-422 -471 503 0
-422 -475 504 0
-416 505 0
-420 506 0
-413 507 0
-473 505 0
-477 506 0
-481 507 0
-416 -473 506 0
-416 -477 507 0
-416 -481 508 0
-420 -473 507 0
-420 -477 508 0
-413 -473 508 0
-501 509 0
-505 509 0
-501 -505 510 0
-502 511 0
-506 511 0
-502 -506 512 0
-503 513 0
-507 513 0
-503 -507 514 0
-504 515 0
-508 515 0
-492 516 0
-500 516 0
-492 -500 517 0
-493 518 0
-509 518 0
-493 -509 519 0
-494 520 0
-510 520 0
-494 -510 521 0
-495 522 0
-511 522 0
-495 -511 523 0
-496 524 0
-512 524 0
-496 -512 525 0
-497 526 0
-513 526 0
-497 -513 527 0
-498 528 0
-514 528 0
-498 -514 529 0
-499 530 0
-515 530 0
-356 531 0
-371 532 0
-375 533 0
-483 531 0
-519 532 0
-523 533 0
-527 534 0
-356 -483 532 0
-356 -519 533 0
-356 -523 534 0
-356 -527 535 0
-371 -483 533 0
-371 -519 534 0
-371 -523 535 0
-375 -483 534 0
-375 -519 535 0
-369 536 0
-373 537 0
-377 538 0
-517 536 0
-521 537 0
-525 538 0
-529 539 0
-369 -517 537 0
-369 -521 538 0
-369 -525 539 0
-373 -517 538 0
-373 -521 539 0
-377 -517 539 0
-532 540 0
-536 540 0
-532 -536 541 0
-533 542 0
-537 542 0
-533 -537 543 0
-534 544 0
-538 544 0
-534 -538 545 0
-535 546 0
-539 546 0
-535 -539 547 0
-368 548 0
-372 549 0
-376 550 0
-516 548 0
-520 549 0
-524 550 0
-528 551 0
-368 -516 549 0
-368 -520 550 0
-368 -524 551 0
-368 -528 552 0
-372 -516 550 0
-372 -520 551 0
-372 -524 552 0
-376 -516 551 0
-376 -520 552 0
-370 553 0
-374 554 0
-367 555 0
-518 553 0
-522 554 0
-526 555 0
-530 556 0
-370 -518 554 0
-370 -522 555 0
-370 -526 556 0
-374 -518 555 0
-374 -522 556 0
-367 -518 556 0
-549 557 0
-553 557 0
-549 -553 558 0
-550 559 0
-554 559 0
-550 -554 560 0
-551 561 0
-555 561 0
-551 -555 562 0
-552 563 0
-556 563 0
-540 564 0
-548 564 0
-540 -548 565 0
-541 566 0
-557 566 0
-541 -557 567 0
-542 568 0
-558 568 0
-542 -558 569 0
-543 570 0
-559 570 0
-543 -559 571 0
-544 572 0
-560 572 0
-544 -560 573 0
-545 574 0
-561 574 0
-545 -561 575 0
-546 576 0
-562 576 0
-546 -562 577 0
-547 578 0
-563 578 0
-310 579 0
-325 580 0
-329 581 0
-531 579 0
-567 580 0
-571 581 0
-575 582 0
-310 -531 580 0
-310 -567 581 0
-310 -571 582 0
-310 -575 583 0
-325 -531 581 0
-325 -567 582 0
-325 -571 583 0
-329 -531 582 0
-329 -567 583 0
-323 584 0
-327 585 0
-331 586 0
-565 584 0
-569 585 0
-573 586 0
-577 587 0
-323 -565 585 0
-323 -569 586 0
-323 -573 587 0
-327 -565 586 0
-327 -569 587 0
-331 -565 587 0
-580 588 0
-584 588 0
-580 -584 589 0
-581 590 0
-585 590 0
-581 -585 591 0
-582 592 0
-586 592 0
-582 -586 593 0
-583 594 0
-587 594 0
-583 -587 595 0
-322 596 0
-326 597 0
-330 598 0
-564 596 0
-568 597 0
-572 598 0
-576 599 0
-322 -564 597 0
-322 -568 598 0
-322 -572 599 0
-322 -576 600 0
-326 -564 598 0
-326 -568 599 0
-326 -572 600 0
-330 -564 599 0
-330 -568 600 0
-324 601 0
-328 602 0
-321 603 0
-566 601 0
-570 602 0
-574 603 0
-578 604 0
-324 -566 602 0
-324 -570 603 0
-324 -574 604 0
-328 -566 603 0
-328 -570 604 0
-321 -566 604 0
-597 605 0
-601 605 0
-597 -601 606 0
-598 607 0
-602 607 0
-598 -602 608 0
-599 609 0
-603 609 0
-599 -603 610 0
-600 611 0
-604 611 0
-588 612 0
-596 612 0
-588 -596 613 0
-589 614 0
-605 614 0
-589 -605 615 0
-590 616 0
-606 616 0
-590 -606 617 0
-591 618 0
-607 618 0
-591 -607 619 0
-592 620 0
-608 620 0
-592 -608 621 0
-593 622 0
-609 622 0
-593 -609 623 0
-594 624 0
-610 624 0
-594 -610 625 0
-595 626 0
-611 626 0
-626 0
